c Random generated cnf formula, satisfiable: false
p cnf 10 50
6 -7 5 0
-1 5 6 0
10 -1 -9 0
3 -7 -8 0
-3 1 -6 0
-4 -10 -1 0
3 -10 5 0
-3 5 2 0
-9 7 -6 0
1 10 8 0
5 10 -6 0
-2 7 -8 0
8 -10 -4 0
-9 -6 -4 0
-10 -8 1 0
-7 -3 -6 0
4 -7 -2 0
-9 -8 -4 0
8 -9 -1 0
-9 -10 -2 0
-9 3 1 0
-4 -5 -8 0
-4 -10 -2 0
2 -10 7 0
4 -6 -1 0
10 -7 -2 0
-9 -4 -2 0
4 1 2 0
2 6 5 0
-8 -7 9 0
2 -6 -1 0
-8 7 -2 0
-3 -10 -1 0
10 -2 7 0
-1 4 8 0
8 9 10 0
7 6 5 0
-3 -8 -10 0
-5 -7 -4 0
9 6 4 0
10 9 -5 0
4 -5 3 0
-4 7 3 0
-5 -1 3 0
5 -9 2 0
7 9 8 0
6 5 3 0
-3 2 -1 0
-9 -4 -2 0
3 8 1 0
